unsat
(:SPACER-cluster-out-of-gas           25
 :SPACER-conj                         34
 :SPACER-inductive-gen                103
 :SPACER-inductive-gen-weaken-fail    124
 :SPACER-inductive-gen-weaken-success 33
 :SPACER-inductive-level              18
 :SPACER-max-depth                    19
 :SPACER-max-query-lvl                19
 :SPACER-non-local-gen                107
 :SPACER-num-active-lemmas            29
 :SPACER-num-ctp-blocked              127
 :SPACER-num-invariants               42
 :SPACER-num-is_invariant             713
 :SPACER-num-lemma-jumped             18
 :SPACER-num-lemmas                   164
 :SPACER-num-pobs                     80
 :SPACER-num-propagations             509
 :SPACER-num-queries                  78
 :SPACER-subsume-pob                  29
 :SPACER-subsume-success              57
 :added-eqs                           13296
 :arith-assert-diseq                  15368
 :arith-assert-lower                  29980
 :arith-assert-upper                  34598
 :arith-bound-prop                    760
 :arith-conflicts                     152
 :arith-eq-adapter                    1830
 :arith-fixed-eqs                     2868
 :arith-num-rows                      46
 :arith-offset-eqs                    1346
 :arith-pivots                        1640
 :arith-row-summations                8224
 :arith-tableau-max-columns           108
 :arith-tableau-max-rows              46
 :conflicts                           2590
 :decisions                           25660
 :del-clause                          2796
 :final-checks                        476
 :iuc_solver.num_proxies              140
 :max-memory                          38.25
 :memory                              37.01
 :minimized-lits                      178
 :mk-bool-var                         8308
 :mk-clause                           6670
 :num-allocs                          484802937
 :num-checks                          2482
 :pool_solver.checks                  1241
 :pool_solver.checks.sat              238
 :propagations                        196624
 :rlimit-count                        901625
 :time                                0.80
 :time.iuc_solver.get_iuc             0.08
 :time.iuc_solver.get_iuc.hyp_reduce1 0.02
 :time.iuc_solver.get_iuc.hyp_reduce2 0.03
 :time.iuc_solver.get_iuc.learn_core  0.01
 :time.pool_solver.proof              0.01
 :time.pool_solver.smt.total          0.33
 :time.pool_solver.smt.total.sat      0.10
 :time.spacer.ctp                     0.01
 :time.spacer.init_rules              0.00
 :time.spacer.mbp                     0.01
 :time.spacer.solve                   0.78
 :time.spacer.solve.propagate         0.22
 :time.spacer.solve.reach             0.55
 :time.spacer.solve.reach.children    0.04
 :time.spacer.solve.reach.cluster     0.10
 :time.spacer.solve.reach.gen.global  0.10
 :time.spacer.solve.reach.gen.ind     0.05
 :time.spacer.solve.reach.is-reach    0.01)
(:max-memory   38.25
 :memory       37.01
 :num-allocs   484802937
 :rlimit-count 901625
 :time         0.80
 :total-time   0.82)
